%nprocshared=4
%mem=16MW
%chk=toluene.chk
# opt=calcfc freq=raman b3lyp/6-31g(d) geom=connectivity

tolune

0 1
 C                 -2.30021599   -0.39956803    0.00000000
 C                 -0.90505599   -0.39956803    0.00000000
 C                 -0.20751799    0.80818297    0.00000000
 C                 -0.90517199    2.01669197   -0.00119900
 C                 -2.29999699    2.01661397   -0.00167800
 C                 -2.99759799    0.80840797   -0.00068200
 H                 -2.84997499   -1.35188503    0.00045000
 H                 -0.35554799   -1.35208103    0.00131500
 H                 -0.35497199    2.96883497   -0.00125800
 H                 -2.85011899    2.96889497   -0.00263100
 H                 -4.09720199    0.80859097   -0.00086200
 C                  1.33248175    0.80829500    0.00088786
 H                  1.68972870    0.82071078   -1.00763605
 H                  1.68878797    1.67571145    0.51618835
 H                  1.68892795   -0.07145942    0.49472818

 1 2 1.5 6 1.5 7 1.0
 2 3 1.5 8 1.0
 3 4 1.5 12 1.0
 4 5 1.5 9 1.0
 5 6 1.5 10 1.0
 6 11 1.0
 7
 8
 9
 10
 11
 12 13 1.0 14 1.0 15 1.0
 13
 14
 15

